<number of tasks>
20

<cycle time>
1000

<order strength>
0,516


<task times>
1 301
2 81
3 93
4 217
5 149
6 135
7 187
8 57
9 54
10 176
11 151
12 52
13 97
14 110
15 165
16 166
17 148
18 187
19 81
20 241

<precedence relations>
1,5
2,6
2,7
2,8
2,9
3,7
3,8
3,9
4,7
4,8
4,9
5,10
6,11
7,12
7,13
8,12
9,12
9,13
10,14
11,15
12,15
14,17
15,16
15,17
15,18
16,19
17,20

<end>
